** written by FreeCAD inp file writer for CalculiX,Abaqus meshes
** highest dimension mesh elements only.

** Nodes
*Node, NSET=Nall
1, -100, 15, -5
2, -100, 15, 5
3, -100, -15, -5
4, -100, -15, 5
5, -100, -10, -2
6, -100, 10, -2
7, -100, 10, 2
8, -100, -10, 2
9, 100, 15, -5
10, 100, 15, 5
11, 100, -15, -5
12, 100, -15, 5
13, 100, -10, -2
14, 100, 10, -2
15, 100, 10, 2
16, 100, -10, 2
17, -100, 15, 0
18, -100, -1.95399252334e-14, -5
19, -100, 7.5, -5
20, -100, -7.5, -5
21, -100, -1.95399252334e-14, 5
22, -100, 7.5, 5
23, -100, -7.5, 5
24, -100, -15, 0
25, -100, 0, -2
26, -100, 10, 0
27, -100, 0, 2
28, -100, -10, 0
29, 100, 15, 0
30, 80, 15, -5
31, 60, 15, -5
32, 40, 15, -5
33, 20, 15, -5
34, 4.263256414561e-14, 15, -5
35, -20, 15, -5
36, -40, 15, -5
37, -60, 15, -5
38, -80, 15, -5
39, 90, 15, -5
40, 70, 15, -5
41, 50, 15, -5
42, 30, 15, -5
43, 10, 15, -5
44, -10, 15, -5
45, -30, 15, -5
46, -50, 15, -5
47, -70, 15, -5
48, -90, 15, -5
49, 80, 15, 5
50, 60, 15, 5
51, 40, 15, 5
52, 20, 15, 5
53, 4.263256414561e-14, 15, 5
54, -20, 15, 5
55, -40, 15, 5
56, -60, 15, 5
57, -80, 15, 5
58, 90, 15, 5
59, 70, 15, 5
60, 50, 15, 5
61, 30, 15, 5
62, 10, 15, 5
63, -10, 15, 5
64, -30, 15, 5
65, -50, 15, 5
66, -70, 15, 5
67, -90, 15, 5
68, -80, -15, -5
69, -60, -15, -5
70, -40, -15, -5
71, -20, -15, -5
72, -4.263256414561e-14, -15, -5
73, 20, -15, -5
74, 40, -15, -5
75, 60, -15, -5
76, 80, -15, -5
77, -90, -15, -5
78, -70, -15, -5
79, -50, -15, -5
80, -30, -15, -5
81, -10, -15, -5
82, 10, -15, -5
83, 30, -15, -5
84, 50, -15, -5
85, 70, -15, -5
86, 90, -15, -5
87, 100, 1.95399252334e-14, -5
88, 100, -7.5, -5
89, 100, 7.5, -5
90, -80, -15, 5
91, -60, -15, 5
92, -40, -15, 5
93, -20, -15, 5
94, -4.263256414561e-14, -15, 5
95, 20, -15, 5
96, 40, -15, 5
97, 60, -15, 5
98, 80, -15, 5
99, -90, -15, 5
100, -70, -15, 5
101, -50, -15, 5
102, -30, -15, 5
103, -10, -15, 5
104, 10, -15, 5
105, 30, -15, 5
106, 50, -15, 5
107, 70, -15, 5
108, 90, -15, 5
109, 100, 1.95399252334e-14, 5
110, 100, -7.5, 5
111, 100, 7.5, 5
112, 100, -15, 0
113, -80, -10, -2
114, -60, -10, -2
115, -40, -10, -2
116, -20, -10, -2
117, -3.574918139293e-14, -10, -2
118, 20, -10, -2
119, 40, -10, -2
120, 60, -10, -2
121, 80, -10, -2
122, -90, -10, -2
123, -70, -10, -2
124, -50, -10, -2
125, -30, -10, -2
126, -10, -10, -2
127, 10, -10, -2
128, 30, -10, -2
129, 50, -10, -2
130, 70, -10, -2
131, 90, -10, -2
132, 100, 0, -2
133, 80, 10, -2
134, 60, 10, -2
135, 40, 10, -2
136, 20, 10, -2
137, 3.574918139293e-14, 10, -2
138, -20, 10, -2
139, -40, 10, -2
140, -60, 10, -2
141, -80, 10, -2
142, 90, 10, -2
143, 70, 10, -2
144, 50, 10, -2
145, 30, 10, -2
146, 10, 10, -2
147, -10, 10, -2
148, -30, 10, -2
149, -50, 10, -2
150, -70, 10, -2
151, -90, 10, -2
152, 100, 10, 0
153, 80, 10, 2
154, 60, 10, 2
155, 40, 10, 2
156, 20, 10, 2
157, 3.574918139293e-14, 10, 2
158, -20, 10, 2
159, -40, 10, 2
160, -60, 10, 2
161, -80, 10, 2
162, 90, 10, 2
163, 70, 10, 2
164, 50, 10, 2
165, 30, 10, 2
166, 10, 10, 2
167, -10, 10, 2
168, -30, 10, 2
169, -50, 10, 2
170, -70, 10, 2
171, -90, 10, 2
172, 100, 0, 2
173, -80, -10, 2
174, -60, -10, 2
175, -40, -10, 2
176, -20, -10, 2
177, -3.574918139293e-14, -10, 2
178, 20, -10, 2
179, 40, -10, 2
180, 60, -10, 2
181, 80, -10, 2
182, -90, -10, 2
183, -70, -10, 2
184, -50, -10, 2
185, -30, -10, 2
186, -10, -10, 2
187, 10, -10, 2
188, 30, -10, 2
189, 50, -10, 2
190, 70, -10, 2
191, 90, -10, 2
192, 100, -10, 0
193, -100, 12.5, -3.5
194, -100, 12.5, 1.5
195, -100, 5, -3.5
196, -100, 12.5, 3.5
197, -100, 5, 3.5
198, -100, -12.5, 1.5
199, -100, -12.5, -3.5
200, -100, -5, -3.5
201, -100, -12.5, 3.5
202, -100, -5, 3.5
203, 90, 15, 0
204, 30, 15, 0
205, 50, 15, 0
206, 70, 15, 0
207, -90, 15, 0
208, -70, 15, 0
209, -10, 15, 0
210, -30, 15, -8.881784197001e-16
211, -50, 15, 0
212, 10, 15, 0
213, -95, 15, 2.5
214, -95, 15, -2.5
215, -85, 15, -2.5
216, -85, 15, 2.5
217, 95, 15, -2.5
218, 95, 15, 2.5
219, 85, 15, -2.5
220, 85, 15, 2.5
221, 65, 15, -2.5
222, 75, 15, -2.5
223, 80, 15, 0
224, 75, 15, 2.5
225, 45, 15, -2.5
226, 55, 15, -2.5
227, 60, 15, 0
228, 55, 15, 2.5
229, 65, 15, 2.5
230, 25, 15, -2.5
231, 35, 15, -2.5
232, 40, 15, 0
233, 35, 15, 2.5
234, 45, 15, 2.5
235, 5, 15, -2.5
236, 15, 15, -2.5
237, 20, 15, 0
238, 25, 15, 2.5
239, 15, 15, 2.5
240, -15, 15, -2.5
241, -5, 15, -2.5
242, 4.263256414561e-14, 15, 0
243, -5, 15, 2.5
244, 5, 15, 2.5
245, -35, 15, -2.5
246, -25, 15, -2.5
247, -20, 15, 0
248, -15, 15, 2.5
249, -25, 15, 2.5
250, -55, 15, -2.5
251, -45, 15, -2.5
252, -40, 15, 0
253, -35, 15, 2.5
254, -45, 15, 2.5
255, -75, 15, -2.5
256, -65, 15, -2.5
257, -60, 15, 0
258, -65, 15, 2.5
259, -55, 15, 2.5
260, -80, 15, 0
261, -75, 15, 2.5
262, 10, 9.90812370421e-16, -5
263, 30, -1.095091095993e-14, -5
264, -10, 4.704713984649e-15, -5
265, -30, 1.124488705169e-14, -5
266, 50, -2.060716480858e-14, -5
267, -50, 1.797978318584e-14, -5
268, 69.57482993197, 0.07086167800447, -5
269, -69.57482993197, -0.07086167800447, -5
270, -85, -0.8333333333332, -5
271, 85, 0.8333333333332, -5
272, -92.5, 7.083333333333, -5
273, -92.5, -0.4166666666666, -5
274, -82.5, 7.083333333333, -5
275, -92.5, -7.916666666667, -5
276, -82.5, -7.916666666667, -5
277, 92.5, 7.916666666667, -5
278, 82.5, 7.916666666667, -5
279, 92.5, 0.4166666666666, -5
280, 82.5, -7.083333333333, -5
281, 92.5, -7.083333333333, -5
282, 74.78741496599, 7.535430839002, -5
283, 64.78741496599, 7.535430839002, -5
284, 77.28741496599, 0.4520975056688, -5
285, 55, 7.5, -5
286, 45, 7.5, -5
287, 59.78741496599, 0.03543083900222, -5
288, 35, 7.5, -5
289, 25, 7.5, -5
290, 40, -1.577903788426e-14, -5
291, 15, 7.5, -5
292, 5, 7.5, -5
293, 20, -4.980049294756e-15, -5
294, -5, 7.5, -5
295, -15, 7.5, -5
296, 3.552713678801e-15, 2.847763177535e-15, -5
297, -25, 7.5, -5
298, -35, 7.5, -5
299, -20, 7.974800518168e-15, -5
300, -45, 7.5, -5
301, -55, 7.5, -5
302, -40, 1.461233511877e-14, -5
303, -64.78741496599, 7.464569160998, -5
304, -74.78741496599, 7.464569160998, -5
305, -59.78741496599, -0.03543083900223, -5
306, -77.28741496599, -0.4520975056688, -5
307, -74.78741496599, -7.535430839002, -5
308, -64.78741496599, -7.535430839002, -5
309, -55, -7.5, -5
310, -45, -7.5, -5
311, -35, -7.5, -5
312, -25, -7.5, -5
313, -15, -7.5, -5
314, -5, -7.5, -5
315, 5, -7.5, -5
316, 15, -7.5, -5
317, 25, -7.5, -5
318, 35, -7.5, -5
319, 45, -7.5, -5
320, 55, -7.5, -5
321, 64.78741496599, -7.464569160998, -5
322, 74.78741496599, -7.464569160998, -5
323, 10, 9.90812370421e-16, 5
324, 30, -1.095091095993e-14, 5
325, -10, 4.704713984649e-15, 5
326, -30, 1.124488705169e-14, 5
327, 50, -2.060716480858e-14, 5
328, -50, 1.797978318584e-14, 5
329, 69.57482993197, 0.07086167800447, 5
330, -69.57482993197, -0.07086167800447, 5
331, -85, -0.8333333333332, 5
332, 85, 0.8333333333332, 5
333, -92.5, -0.4166666666666, 5
334, -92.5, 7.083333333333, 5
335, -82.5, 7.083333333333, 5
336, -92.5, -7.916666666667, 5
337, -82.5, -7.916666666667, 5
338, 82.5, 7.916666666667, 5
339, 92.5, 7.916666666667, 5
340, 92.5, 0.4166666666666, 5
341, 92.5, -7.083333333333, 5
342, 82.5, -7.083333333333, 5
343, 64.78741496599, 7.535430839002, 5
344, 74.78741496599, 7.535430839002, 5
345, 77.28741496599, 0.4520975056688, 5
346, 45, 7.5, 5
347, 55, 7.5, 5
348, 59.78741496599, 0.03543083900222, 5
349, 25, 7.5, 5
350, 35, 7.5, 5
351, 40, -1.577903788426e-14, 5
352, 5, 7.5, 5
353, 15, 7.5, 5
354, 20, -4.980049294756e-15, 5
355, -15, 7.5, 5
356, -5, 7.5, 5
357, 3.552713678801e-15, 2.847763177535e-15, 5
358, -35, 7.5, 5
359, -25, 7.5, 5
360, -20, 7.974800518168e-15, 5
361, -55, 7.5, 5
362, -45, 7.5, 5
363, -40, 1.461233511877e-14, 5
364, -74.78741496599, 7.464569160998, 5
365, -64.78741496599, 7.464569160998, 5
366, -59.78741496599, -0.03543083900223, 5
367, -77.28741496599, -0.4520975056688, 5
368, -64.78741496599, -7.535430839002, 5
369, -74.78741496599, -7.535430839002, 5
370, -45, -7.5, 5
371, -55, -7.5, 5
372, -25, -7.5, 5
373, -35, -7.5, 5
374, -5, -7.5, 5
375, -15, -7.5, 5
376, 15, -7.5, 5
377, 5, -7.5, 5
378, 35, -7.5, 5
379, 25, -7.5, 5
380, 55, -7.5, 5
381, 45, -7.5, 5
382, 74.78741496599, -7.464569160998, 5
383, 64.78741496599, -7.464569160998, 5
384, -90, -15, 0
385, -30, -15, 0
386, -50, -15, 0
387, -70, -15, 0
388, 90, -15, 0
389, 70, -15, 0
390, 10, -15, 0
391, 30, -15, -8.881784197001e-16
392, 50, -15, 0
393, -10, -15, 0
394, -95, -15, -2.5
395, -95, -15, 2.5
396, -85, -15, -2.5
397, -85, -15, 2.5
398, 95, -15, 2.5
399, 95, -15, -2.5
400, 85, -15, -2.5
401, 85, -15, 2.5
402, -65, -15, -2.5
403, -75, -15, -2.5
404, -80, -15, 0
405, -75, -15, 2.5
406, -45, -15, -2.5
407, -55, -15, -2.5
408, -60, -15, 0
409, -55, -15, 2.5
410, -65, -15, 2.5
411, -25, -15, -2.5
412, -35, -15, -2.5
413, -40, -15, 0
414, -35, -15, 2.5
415, -45, -15, 2.5
416, -5, -15, -2.5
417, -15, -15, -2.5
418, -20, -15, 0
419, -25, -15, 2.5
420, -15, -15, 2.5
421, 15, -15, -2.5
422, 5, -15, -2.5
423, -4.263256414561e-14, -15, 0
424, 5, -15, 2.5
425, -5, -15, 2.5
426, 35, -15, -2.5
427, 25, -15, -2.5
428, 20, -15, 0
429, 15, -15, 2.5
430, 25, -15, 2.5
431, 55, -15, -2.5
432, 45, -15, -2.5
433, 40, -15, 0
434, 35, -15, 2.5
435, 45, -15, 2.5
436, 75, -15, -2.5
437, 65, -15, -2.5
438, 60, -15, 0
439, 65, -15, 2.5
440, 55, -15, 2.5
441, 80, -15, 0
442, 75, -15, 2.5
443, -90, 0, -2
444, 90, 0, -2
445, -30, 2.283358687312e-14, -2
446, 30, -1.142789566681e-14, -2
447, -10, 1.66119322883e-14, -2
448, 10, 1.046323941238e-14, -2
449, -70, -8.881784197001e-16, -2
450, 70, 4.440892098501e-16, -2
451, -50, 9.947598300641e-14, -2
452, 50, -9.947598300641e-14, -2
453, -95, -5, -2
454, -95, 5, -2
455, -85, -5, -2
456, -85, 5, -2
457, 95, 5, -2
458, 95, -5, -2
459, 85, -5, -2
460, 85, 5, -2
461, -65, -5, -2
462, -75, -5, -2
463, -80, 0, -2
464, -75, 5, -2
465, -45, -5, -2
466, -55, -5, -2
467, -60, 0, -2
468, -65, 5, -2
469, -55, 5, -2
470, -25, -5, -2
471, -35, -5, -2
472, -40, 6.115478493977e-14, -2
473, -5, -5, -2
474, -15, -5, -2
475, -20, 1.972275958071e-14, -2
476, 15, -5, -2
477, 5, -5, -2
478, 1.24344978758e-14, 1.353758585034e-14, -2
479, 35, -5, -2
480, 25, -5, -2
481, 20, -4.823281272154e-16, -2
482, 55, -5, -2
483, 45, -5, -2
484, 40, -5.545193933661e-14, -2
485, 75, -5, -2
486, 65, -5, -2
487, 60, 0, -2
488, 65, 5, -2
489, 55, 5, -2
490, 80, 0, -2
491, 75, 5, -2
492, 45, 5, -2
493, 25, 5, -2
494, 35, 5, -2
495, 5, 5, -2
496, 15, 5, -2
497, -15, 5, -2
498, -5, 5, -2
499, -35, 5, -2
500, -25, 5, -2
501, -45, 5, -2
502, -90, 10, 0
503, -80, 10, 0
504, 90, 10, 0
505, 80, 10, 0
506, 70, 10, 0
507, 60, 10, 0
508, 50, 10, 0
509, 30, 10, 0
510, 20, 10, 0
511, 40, 10, 0
512, 10, 10, 0
513, 3.574918139293e-14, 10, 0
514, -10, 10, 0
515, -20, 10, 0
516, -30, 10, 0
517, -40, 10, 0
518, -50, 10, 0
519, -60, 10, 0
520, -70, 10, 0
521, -90, 0, 2
522, 90, 0, 2
523, 10, -1.184237892933e-14, 2
524, -10, -1.517919073378e-14, 2
525, 30, -1.884911979586e-14, 2
526, -30, 1.414420441021e-14, 2
527, 70, 8.881784197001e-16, 2
528, -70, -8.881784197001e-16, 2
529, 50, -9.947598300641e-14, 2
530, -50, 1.00044417195e-13, 2
531, -95, 5, 2
532, -95, -5, 2
533, -85, 5, 2
534, -85, -5, 2
535, 95, -5, 2
536, 95, 5, 2
537, 85, 5, 2
538, 85, -5, 2
539, 75, 5, 2
540, 65, 5, 2
541, 80, 0, 2
542, 75, -5, 2
543, 55, 5, 2
544, 45, 5, 2
545, 60, 0, 2
546, 65, -5, 2
547, 55, -5, 2
548, 35, 5, 2
549, 25, 5, 2
550, 40, -5.916255140113e-14, 2
551, 15, 5, 2
552, 5, 5, 2
553, 20, -1.53457493626e-14, 2
554, -5, 5, 2
555, -15, 5, 2
556, -1.59872115546e-14, -1.351078483156e-14, 2
557, -25, 5, 2
558, -35, 5, 2
559, -20, -5.17493161785e-16, 2
560, -45, 5, 2
561, -55, 5, 2
562, -40, 5.709431080261e-14, 2
563, -65, 5, 2
564, -75, 5, 2
565, -60, 0, 2
566, -65, -5, 2
567, -55, -5, 2
568, -80, 0, 2
569, -75, -5, 2
570, -45, -5, 2
571, -35, -5, 2
572, -25, -5, 2
573, -15, -5, 2
574, -5, -5, 2
575, 5, -5, 2
576, 15, -5, 2
577, 25, -5, 2
578, 35, -5, 2
579, 45, -5, 2
580, -90, -10, 0
581, -80, -10, 0
582, 90, -10, 0
583, 80, -10, 0
584, -70, -10, 0
585, -60, -10, 0
586, -50, -10, 0
587, -40, -10, 0
588, -30, -10, 0
589, -20, -10, 0
590, -10, -10, 0
591, -3.574918139293e-14, -10, 0
592, 10, -10, 0
593, 20, -10, 0
594, 30, -10, 0
595, 40, -10, 0
596, 50, -10, 0
597, 60, -10, 0
598, 70, -10, 0
599, 100, 12.5, 1.5
600, 100, 12.5, -3.5
601, 100, 5, -3.5
602, 100, 12.5, 3.5
603, 100, 5, 3.5
604, 100, -12.5, -3.5
605, 100, -12.5, 1.5
606, 100, -5, -3.5
607, 100, -12.5, 3.5
608, 100, -5, 3.5
609, -70, 12.5, 3.5
610, -75, 12.5, 1
611, -80, 12.5, 3.5
612, 70, -12.5, -3.5
613, 75, -12.5, -1
614, 80, -12.5, -3.5
615, 90, -12.5, 3.5
616, 80, -12.5, 3.5
617, 85, -12.5, 1
618, 95, -12.5, 1
619, 65, -12.5, -1
620, 60, -12.5, -3.5
621, -60, 12.5, 3.5
622, -65, 12.5, 1
623, -50, -12.5, 3.5
624, -55, -12.5, 1
625, -60, -12.5, 3.5
626, 50, 12.5, -3.5
627, 55, 12.5, -1
628, 60, 12.5, -3.5
629, 30, 12.5, 3.5
630, 25, 12.5, 1
631, 20, 12.5, 3.5
632, 70, 12.5, -3.5
633, 80, 12.5, -3.5
634, 75, 12.5, -1
635, -70, -12.5, 3.5
636, -65, -12.5, 1
637, 70, 12.5, 3.5
638, 65, 12.5, 1
639, 60, 12.5, 3.5
640, -70, -12.5, -3.5
641, -65, -12.5, -1
642, -60, -12.5, -3.5
643, 10, -12.5, 3.5
644, 5, -12.5, 1
645, -3.919087276927e-14, -12.5, 3.5
646, -30, 12.5, 3.5
647, -25, 12.5, 1
648, -20, 12.5, 3.5
649, -30, 12.5, -3.5
650, -20, 12.5, -3.5
651, -25, 12.5, -1
652, 10, 12.5, -3.5
653, 5, 12.5, -1
654, 3.919087276927e-14, 12.5, -3.5
655, 30, -12.5, 3.5
656, 25, -12.5, 1
657, 20, -12.5, 3.5
658, -50, 12.5, -3.5
659, -55, 12.5, -1
660, -60, 12.5, -3.5
661, 50, -12.5, 3.5
662, 55, -12.5, 1
663, 60, -12.5, 3.5
664, 10, 12.5, 3.5
665, 15, 12.5, 1
666, -10, -12.5, 3.5
667, -15, -12.5, 1
668, -20, -12.5, 3.5
669, -50, 12.5, 3.5
670, -55, 12.5, 1
671, 50, -12.5, -3.5
672, 55, -12.5, -1
673, 40, 12.5, 3.5
674, 35, 5, 3.5
675, 45, 5, 3.5
676, 20, 12.5, -3.5
677, 25, 5, -3.5
678, 15, 5, -3.5
679, 40, 12.5, -3.5
680, 45, 12.5, -1
681, -45, -12.5, 1
682, -40, -12.5, 3.5
683, -80, -12.5, 3.5
684, -75, -12.5, 1
685, -75, -12.5, -1
686, -80, -12.5, -3.5
687, 65, 12.5, -1
688, 80, 12.5, 3.5
689, 75, 12.5, 1
690, 40, -12.5, 3.5
691, 45, -12.5, 1
692, 15, -12.5, 1
693, -40, 12.5, -3.5
694, -35, 12.5, -1
695, -35, 12.5, 1
696, -40, 12.5, 3.5
697, 35, -12.5, 1
698, -5, -12.5, 1
699, 5, 12.5, 1
700, 3.919087276927e-14, 12.5, 3.5
701, 40, -12.5, -3.5
702, 45, -12.5, -1
703, -45, 12.5, 1
704, -90, -12.5, -3.5
705, -85, -12.5, -1
706, -90, -12.5, 3.5
707, -85, -12.5, 1
708, 90, 12.5, 3.5
709, 85, 12.5, 1
710, -35, 5, -3.5
711, -45, 5, -3.5
712, 35, -5, 3.5
713, 45, -5, 3.5
714, -5, -5, 3.5
715, 5, -5, 3.5
716, -45, 5, 3.5
717, -35, 5, 3.5
718, 25, -5, -3.5
719, 20, -12.5, -3.5
720, 15, -5, -3.5
721, 35, -5, -3.5
722, 45, -5, -3.5
723, -25, 5, -3.5
724, -15, 5, -3.5
725, 25, -5, 3.5
726, 15, -5, 3.5
727, -15, 5, 3.5
728, -25, 5, 3.5
729, -5, 5, -3.5
730, 5, 5, -3.5
731, 5, -5, -3.5
732, -5, -5, -3.5
733, -3.919087276927e-14, -12.5, -3.5
734, 5, 5, 3.5
735, -5, 5, 3.5
736, -40, -12.5, -3.5
737, -35, -5, -3.5
738, -45, -5, -3.5
739, -45, -5, 3.5
740, -35, -5, 3.5
741, -20, -12.5, -3.5
742, -15, -5, -3.5
743, -25, -5, -3.5
744, 35, 5, -3.5
745, 45, 5, -3.5
746, 15, 5, 3.5
747, 25, 5, 3.5
748, -15, -5, 3.5
749, -25, -5, 3.5
750, 95, 12.5, 1
751, -95, -12.5, -1
752, -64.78741496599, 4.964569160998, -3.5
753, -55, 5, -3.5
754, 64.78741496599, -4.964569160998, 3.5
755, 55, -5, 3.5
756, -55, 5, 3.5
757, -64.78741496599, 4.964569160998, 3.5
758, 64.78741496599, -4.964569160998, -3.5
759, 55, -5, -3.5
760, -55, -5, 3.5
761, -64.78741496599, -5.035430839002, 3.5
762, 64.78741496599, 5.035430839002, -3.5
763, 55, 5, -3.5
764, 64.78741496599, 5.035430839002, 3.5
765, 55, 5, 3.5
766, -64.78741496599, -5.035430839002, -3.5
767, -55, -5, -3.5
768, -87.5, -0.4166666666666, 3.5
769, -82.5, 4.583333333333, 3.5
770, -82.5, -5.416666666667, 3.5
771, 82.5, -4.583333333333, -3.5
772, 87.5, 0.4166666666666, -3.5
773, 82.5, 5.416666666667, -3.5
774, -82.5, 4.583333333333, -3.5
775, -87.5, -0.4166666666666, -3.5
776, -82.5, -5.416666666667, -3.5
777, 82.5, 5.416666666667, 3.5
778, 87.5, 0.4166666666666, 3.5
779, 82.5, -4.583333333333, 3.5
780, -95, -9.769962616701e-15, -3.5
781, -95, 7.5, -3.5
782, -95, 7.5, 3.5
783, -95, -9.769962616701e-15, 3.5
784, 95, -7.5, -3.5
785, 95, 9.769962616701e-15, -3.5
786, 95, -7.5, 3.5
787, 95, 9.769962616701e-15, 3.5
788, -95, 12.5, -1
789, -85, 12.5, -1
790, -95, 12.5, 1
791, 95, -12.5, -1
792, -85, 12.5, 1
793, 75, -12.5, 1
794, -75, 12.5, -1
795, 85, 12.5, -1
796, 95, 12.5, -1
797, -25, -12.5, 1
798, -25, -12.5, -1
799, -35, -12.5, -1
800, 55, 12.5, 1
801, -55, -12.5, -1
802, -35, -12.5, 1
803, -5, 12.5, 1
804, -15, 12.5, -1
805, -15, 12.5, 1
806, -5, 12.5, -1
807, 5, -12.5, -1
808, -5, -12.5, -1
809, -15, -12.5, -1
810, 25, -12.5, -1
811, 74.78741496599, -4.964569160998, -3.5
812, -74.78741496599, 4.964569160998, 3.5
813, -80, 12.5, -3.5
814, -74.78741496599, 4.964569160998, -3.5
815, 74.78741496599, -4.964569160998, 3.5
816, 74.78741496599, 5.035430839002, 3.5
817, 74.78741496599, 5.035430839002, -3.5
818, -74.78741496599, -5.035430839002, -3.5
819, -74.78741496599, -5.035430839002, 3.5
820, -85, 7.5, 3.5
821, -85, 7.5, -3.5
822, 85, -7.5, -3.5
823, 85, -7.5, 3.5
824, -92.5, -5.416666666667, 3.5
825, 92.5, 5.416666666667, -3.5
826, -92.5, -5.416666666667, -3.5
827, 92.5, 5.416666666667, 3.5
828, -69.78741496599, -0.03543083900224, 3.5
829, 69.78741496599, 0.03543083900223, -3.5
830, -69.78741496599, -0.03543083900224, -3.5
831, 69.78741496599, 0.03543083900223, 3.5
832, 40, -1.972814230222e-14, 3.5
833, 50, -6.00415739075e-14, 3.5
834, 30, -1.49000153779e-14, 3.5
835, 20, -2.438357737776e-16, -3.5
836, 30, -1.118940331337e-14, -3.5
837, 10, 5.727025891399e-15, -3.5
838, 40, -1.601753023769e-14, -3.5
839, 50, -6.00415739075e-14, -3.5
840, -20, 9.424459197428e-15, 3.5
841, -10, -5.237238374565e-15, 3.5
842, -30, 1.269454573095e-14, 3.5
843, -20, 1.392840966999e-14, -3.5
844, -30, 1.703923696241e-14, -3.5
845, 10, -5.425783279457e-15, 3.5
846, 20, -8.929153712718e-15, 3.5
847, -10, 1.065832313647e-14, -3.5
848, 6.217248937901e-15, 8.80137232936e-15, -3.5
849, -3.552713678801e-15, -3.568832472343e-15, 3.5
850, -40, 5.564465212335e-14, 3.5
851, -40, 5.536043502905e-14, -3.5
852, -50, 5.872788309613e-14, -3.5
853, -50, 5.901210019043e-14, 3.5
854, -80, 12.5, -1.5
855, -20, 12.5, -1.5
856, -40, 12.5, -1.5
857, 3.919087276927e-14, 12.5, -1.5
858, -3.919087276927e-14, -12.5, 1.5
859, 20, -12.5, -1.5
860, 40, -12.5, -1.5
861, -20, -12.5, 1.5
862, 60, 12.5, 1.5
863, 40, 12.5, 1.5
864, 35, 12.5, -1
865, -60, -12.5, 1.5
866, 80, 12.5, -1.5
867, -80, -12.5, -1.5
868, -40, -12.5, -1.5
869, 20, 12.5, -1.5
870, 80, -12.5, -1.5
871, 60, -12.5, 1.5
872, -60, 12.5, -1.5
873, 30, 12.5, -3.5
874, 50, 12.5, 3.5
875, -70, 12.5, -3.5
876, 70, -12.5, 3.5
877, -50, -12.5, -3.5
878, -30, -12.5, 3.5
879, 90, 12.5, -3.5
880, 10, -12.5, -3.5
881, -10, 12.5, 3.5
882, -10, 12.5, -3.5
883, 30, -12.5, -3.5
884, -10, -12.5, -3.5
885, -90, 12.5, 3.5
886, 90, -12.5, -3.5
887, -90, 12.5, -3.5
888, -30, -12.5, -3.5


** Volume elements
*Element, TYPE=C3D10, ELSET=Evolumes
405, 208, 161, 56, 57, 610, 609, 258, 261, 611, 66
406, 389, 75, 121, 76, 437, 612, 613, 436, 85, 614
407, 98, 181, 16, 388, 616, 191, 615, 401, 617, 618
408, 389, 121, 75, 120, 613, 612, 437, 619, 130, 620
409, 208, 56, 161, 160, 258, 609, 610, 622, 621, 170
410, 386, 92, 174, 91, 415, 623, 624, 409, 101, 625
411, 205, 134, 32, 31, 627, 626, 225, 226, 628, 41
412, 204, 156, 51, 52, 630, 629, 233, 238, 631, 61
413, 30, 31, 133, 206, 40, 632, 633, 222, 221, 634
414, 387, 174, 90, 91, 636, 635, 405, 410, 625, 100
415, 206, 154, 49, 50, 638, 637, 224, 229, 639, 59
416, 387, 68, 114, 69, 403, 640, 641, 402, 78, 642
417, 390, 95, 177, 94, 429, 643, 644, 424, 104, 645
418, 210, 55, 158, 54, 253, 646, 647, 249, 64, 648
419, 35, 36, 138, 210, 45, 649, 650, 246, 245, 651
420, 212, 33, 137, 34, 236, 652, 653, 235, 43, 654
421, 391, 96, 178, 95, 434, 655, 656, 430, 105, 657
422, 211, 36, 140, 37, 251, 658, 659, 250, 46, 660
423, 392, 180, 96, 97, 662, 661, 435, 440, 663, 106
424, 212, 53, 156, 52, 244, 664, 665, 239, 62, 631
425, 393, 94, 176, 93, 425, 666, 667, 420, 103, 668
426, 211, 160, 55, 56, 670, 669, 254, 259, 621, 65
427, 392, 74, 120, 75, 432, 671, 672, 431, 84, 620
428, 324, 51, 327, 155, 350, 346, 351, 674, 673, 675
429, 263, 136, 33, 262, 677, 676, 289, 293, 678, 291
430, 205, 32, 134, 135, 225, 626, 627, 680, 679, 144
431, 386, 174, 92, 175, 624, 623, 415, 681, 184, 682
432, 387, 90, 174, 173, 405, 635, 636, 684, 683, 183
433, 387, 114, 68, 113, 641, 640, 403, 685, 123, 686
434, 31, 134, 133, 206, 628, 143, 632, 221, 687, 634
435, 206, 49, 154, 153, 224, 637, 638, 689, 688, 163
436, 392, 96, 180, 179, 435, 661, 662, 691, 690, 189
437, 178, 95, 177, 390, 657, 643, 187, 692, 429, 644
438, 36, 139, 138, 210, 693, 148, 649, 245, 694, 651
439, 210, 159, 158, 55, 695, 168, 647, 253, 696, 646
440, 391, 178, 96, 179, 656, 655, 434, 697, 188, 690
441, 393, 176, 94, 177, 667, 666, 425, 698, 186, 645
442, 212, 156, 53, 157, 665, 664, 244, 699, 166, 700
443, 119, 74, 120, 392, 701, 671, 129, 702, 432, 672
444, 211, 55, 160, 159, 254, 669, 670, 703, 696, 169
445, 384, 3, 113, 68, 394, 704, 705, 396, 77, 686
446, 90, 4, 173, 384, 99, 706, 683, 397, 395, 707
447, 203, 153, 10, 49, 709, 708, 218, 220, 688, 58
448, 265, 36, 267, 139, 298, 300, 302, 710, 693, 711
449, 179, 324, 96, 327, 712, 378, 690, 713, 351, 381
450, 177, 325, 94, 323, 714, 374, 645, 715, 357, 377
451, 328, 159, 55, 326, 716, 696, 362, 363, 717, 358
452, 73, 263, 262, 118, 317, 293, 316, 719, 718, 720
453, 263, 74, 266, 119, 318, 319, 290, 721, 701, 722
454, 35, 265, 264, 138, 297, 299, 295, 650, 723, 724
455, 324, 178, 95, 323, 725, 657, 379, 354, 726, 376
456, 158, 325, 54, 326, 727, 355, 648, 728, 360, 359
457, 34, 137, 264, 262, 654, 729, 294, 292, 730, 296
458, 264, 262, 117, 72, 296, 731, 732, 314, 315, 733
459, 53, 323, 325, 157, 352, 357, 356, 700, 734, 735
460, 115, 265, 70, 267, 737, 311, 736, 738, 302, 310
461, 328, 92, 175, 326, 370, 682, 739, 363, 373, 740
462, 116, 264, 71, 265, 742, 313, 741, 743, 299, 312
463, 135, 263, 32, 266, 744, 288, 679, 745, 290, 286
464, 323, 52, 324, 156, 353, 349, 354, 746, 631, 747
465, 93, 325, 176, 326, 375, 748, 668, 372, 360, 749
466, 203, 10, 153, 15, 218, 708, 709, 750, 602, 162
467, 5, 3, 113, 384, 199, 704, 122, 751, 394, 705
468, 37, 269, 267, 140, 303, 305, 301, 660, 752, 753
469, 329, 180, 97, 327, 754, 663, 383, 348, 755, 380
470, 160, 328, 56, 330, 756, 361, 621, 757, 366, 365
471, 120, 266, 268, 75, 759, 287, 758, 620, 320, 321
472, 12, 98, 16, 388, 108, 615, 607, 398, 401, 618
473, 328, 91, 330, 174, 371, 368, 366, 760, 625, 761
474, 268, 134, 31, 266, 762, 628, 283, 287, 763, 285
475, 50, 329, 327, 154, 343, 348, 347, 639, 764, 765
476, 269, 114, 69, 267, 766, 642, 308, 305, 767, 309
477, 161, 521, 173, 331, 533, 534, 568, 769, 768, 770
478, 444, 121, 133, 271, 459, 490, 460, 772, 771, 773
479, 443, 141, 113, 270, 456, 463, 455, 775, 774, 776
480, 522, 153, 181, 332, 537, 541, 538, 778, 777, 779
481, 18, 270, 1, 443, 273, 272, 19, 780, 775, 781
482, 2, 331, 21, 521, 334, 333, 22, 782, 768, 783
483, 11, 271, 444, 87, 281, 772, 784, 88, 279, 785
484, 109, 522, 12, 332, 787, 786, 110, 340, 778, 341
485, 141, 6, 7, 207, 151, 26, 502, 789, 788, 790
486, 13, 16, 181, 388, 192, 191, 582, 791, 618, 617
487, 161, 141, 7, 207, 503, 502, 171, 792, 789, 790
488, 121, 181, 120, 389, 583, 598, 130, 613, 793, 619
489, 208, 141, 160, 161, 794, 520, 622, 610, 503, 170
490, 133, 15, 14, 203, 504, 152, 142, 795, 750, 796
491, 116, 176, 115, 385, 589, 588, 125, 798, 797, 799
492, 154, 134, 135, 205, 507, 144, 508, 800, 627, 680
493, 114, 175, 174, 386, 586, 184, 585, 801, 681, 624
494, 115, 176, 175, 385, 588, 185, 587, 799, 797, 802
495, 113, 174, 173, 387, 584, 183, 581, 685, 636, 684
496, 203, 133, 15, 153, 795, 504, 750, 709, 505, 162
497, 113, 173, 5, 384, 581, 580, 122, 705, 707, 751
498, 153, 133, 134, 206, 505, 143, 506, 689, 634, 687
499, 114, 174, 113, 387, 585, 584, 123, 641, 636, 685
500, 154, 153, 134, 206, 163, 506, 507, 638, 689, 687
501, 119, 180, 179, 392, 596, 189, 595, 702, 662, 691
502, 209, 138, 157, 158, 804, 514, 803, 805, 515, 167
503, 138, 157, 137, 209, 514, 513, 147, 804, 803, 806
504, 117, 178, 177, 390, 592, 187, 591, 807, 692, 644
505, 117, 177, 116, 393, 591, 590, 126, 808, 698, 809
506, 158, 138, 139, 210, 515, 148, 516, 647, 651, 694
507, 159, 158, 139, 210, 168, 516, 517, 695, 647, 694
508, 118, 179, 178, 391, 594, 188, 593, 810, 697, 656
509, 212, 137, 156, 157, 653, 512, 665, 699, 513, 166
510, 116, 177, 176, 393, 590, 186, 589, 809, 698, 667
511, 120, 180, 119, 392, 597, 596, 129, 672, 662, 702
512, 211, 140, 159, 160, 659, 518, 703, 670, 519, 169
513, 109, 12, 522, 16, 110, 786, 787, 608, 607, 535
514, 18, 1, 6, 443, 19, 193, 195, 780, 781, 454
515, 11, 444, 13, 87, 784, 458, 604, 88, 785, 606
516, 21, 7, 2, 521, 197, 196, 22, 783, 531, 782
517, 121, 268, 271, 76, 811, 284, 771, 614, 322, 280
518, 161, 330, 57, 331, 812, 364, 611, 769, 367, 335
519, 38, 270, 269, 141, 274, 306, 304, 813, 774, 814
520, 332, 181, 98, 329, 779, 616, 342, 345, 815, 382
521, 49, 332, 329, 153, 338, 345, 344, 688, 777, 816
522, 268, 30, 133, 271, 282, 633, 817, 284, 278, 773
523, 270, 113, 68, 269, 776, 686, 276, 306, 818, 307
524, 330, 90, 331, 173, 369, 337, 367, 819, 683, 770
525, 331, 57, 521, 2, 335, 820, 768, 334, 67, 782
526, 270, 443, 38, 1, 775, 821, 274, 272, 781, 48
527, 11, 76, 444, 271, 86, 822, 784, 281, 280, 772
528, 98, 12, 522, 332, 108, 786, 823, 342, 341, 778
529, 21, 331, 8, 521, 333, 824, 202, 783, 768, 532
530, 271, 14, 444, 87, 825, 457, 772, 279, 601, 785
531, 270, 18, 5, 443, 273, 200, 826, 775, 780, 453
532, 15, 332, 522, 109, 827, 778, 536, 603, 340, 787
533, 21, 4, 8, 331, 23, 201, 202, 333, 336, 824
534, 14, 271, 9, 87, 825, 277, 600, 601, 279, 89
535, 3, 18, 5, 270, 20, 200, 199, 275, 273, 826
536, 10, 332, 15, 109, 339, 827, 602, 111, 340, 603
537, 16, 98, 522, 181, 615, 823, 535, 191, 616, 538
538, 271, 76, 444, 121, 280, 822, 772, 771, 614, 459
539, 161, 57, 521, 331, 611, 820, 533, 769, 335, 768
540, 181, 98, 522, 332, 616, 823, 538, 779, 342, 778
541, 141, 443, 38, 270, 456, 821, 813, 774, 775, 274
542, 16, 12, 522, 98, 607, 786, 535, 615, 108, 823
543, 268, 121, 75, 76, 811, 612, 321, 322, 614, 85
544, 330, 56, 161, 57, 365, 609, 812, 364, 66, 611
545, 160, 161, 528, 330, 170, 564, 563, 757, 812, 828
546, 120, 450, 121, 268, 486, 485, 130, 758, 829, 811
547, 160, 56, 161, 330, 621, 609, 170, 757, 365, 812
548, 120, 121, 75, 268, 130, 612, 620, 758, 811, 321
549, 521, 8, 173, 331, 532, 182, 534, 768, 824, 770
550, 444, 133, 14, 271, 460, 142, 457, 772, 773, 825
551, 449, 141, 140, 269, 464, 150, 468, 830, 814, 752
552, 527, 180, 181, 329, 546, 190, 542, 831, 754, 815
553, 268, 31, 133, 30, 283, 632, 817, 282, 40, 633
554, 330, 90, 174, 91, 369, 635, 761, 368, 100, 625
555, 269, 114, 68, 69, 766, 640, 307, 308, 642, 78
556, 329, 49, 154, 50, 344, 637, 764, 343, 59, 639
557, 443, 113, 5, 270, 455, 122, 453, 775, 776, 826
558, 15, 153, 522, 332, 162, 537, 536, 827, 777, 778
559, 323, 177, 95, 94, 715, 643, 376, 377, 645, 104
560, 328, 174, 92, 91, 760, 623, 370, 371, 625, 101
561, 266, 32, 134, 31, 286, 626, 763, 285, 41, 628
562, 54, 55, 158, 326, 64, 646, 648, 359, 358, 728
563, 265, 36, 138, 35, 298, 649, 723, 297, 45, 650
564, 324, 178, 96, 95, 725, 655, 378, 379, 657, 105
565, 324, 51, 156, 52, 350, 629, 747, 349, 61, 631
566, 155, 51, 156, 324, 673, 629, 165, 674, 350, 747
567, 262, 137, 33, 34, 730, 652, 291, 292, 654, 43
568, 267, 140, 36, 37, 753, 658, 300, 301, 660, 46
569, 327, 96, 180, 97, 381, 661, 755, 380, 106, 663
570, 325, 176, 94, 93, 748, 666, 374, 375, 668, 103
571, 52, 53, 156, 323, 62, 664, 631, 353, 352, 746
572, 262, 33, 137, 136, 291, 652, 730, 678, 676, 146
573, 56, 160, 55, 328, 621, 669, 65, 361, 756, 362
574, 266, 120, 74, 75, 759, 671, 319, 320, 620, 84
575, 173, 90, 174, 330, 683, 635, 183, 819, 369, 761
576, 113, 114, 68, 269, 123, 640, 686, 818, 766, 307
577, 268, 134, 133, 31, 762, 143, 817, 283, 628, 632
578, 153, 49, 154, 329, 688, 637, 163, 816, 344, 764
579, 450, 134, 133, 268, 488, 143, 491, 829, 762, 817
580, 449, 114, 113, 269, 461, 123, 462, 830, 766, 818
581, 528, 173, 174, 330, 569, 183, 566, 828, 819, 761
582, 527, 153, 154, 329, 539, 163, 540, 831, 816, 764
583, 175, 174, 92, 328, 184, 623, 682, 739, 760, 370
584, 135, 32, 134, 266, 679, 626, 144, 745, 286, 763
585, 323, 95, 177, 178, 376, 643, 715, 726, 657, 187
586, 139, 140, 36, 267, 149, 658, 693, 711, 753, 300
587, 179, 96, 180, 327, 690, 661, 189, 713, 381, 755
588, 179, 178, 96, 324, 188, 655, 690, 712, 725, 378
589, 55, 159, 158, 326, 696, 168, 646, 358, 717, 728
590, 265, 139, 138, 36, 710, 148, 723, 298, 693, 649
591, 177, 176, 94, 325, 186, 666, 645, 714, 748, 374
592, 323, 53, 156, 157, 352, 664, 746, 734, 700, 166
593, 328, 160, 55, 159, 756, 669, 362, 716, 169, 696
594, 266, 74, 120, 119, 319, 671, 759, 722, 701, 129
595, 114, 269, 449, 140, 766, 830, 461, 467, 752, 468
596, 329, 180, 154, 527, 754, 545, 764, 831, 546, 540
597, 268, 134, 120, 450, 762, 487, 758, 829, 488, 486
598, 528, 174, 160, 330, 566, 565, 563, 828, 761, 757
599, 331, 4, 173, 90, 336, 706, 770, 337, 99, 683
600, 332, 10, 153, 49, 339, 708, 777, 338, 58, 688
601, 270, 113, 3, 68, 776, 704, 275, 276, 686, 77
602, 331, 8, 173, 4, 824, 182, 770, 336, 201, 706
603, 270, 3, 113, 5, 275, 704, 776, 826, 199, 122
604, 15, 10, 153, 332, 602, 708, 162, 827, 339, 777
605, 327, 529, 525, 155, 833, 550, 832, 675, 544, 548
606, 324, 327, 525, 155, 351, 832, 834, 674, 675, 548
607, 446, 263, 448, 136, 836, 835, 481, 493, 677, 496
608, 136, 263, 448, 262, 677, 835, 496, 678, 293, 837
609, 179, 529, 525, 327, 579, 550, 578, 713, 833, 832
610, 135, 446, 136, 263, 494, 493, 145, 744, 836, 677
611, 266, 452, 446, 119, 839, 484, 838, 722, 483, 479
612, 155, 156, 525, 324, 165, 549, 548, 674, 747, 834
613, 179, 327, 525, 324, 713, 832, 578, 712, 351, 834
614, 325, 524, 526, 158, 841, 559, 840, 727, 555, 557
615, 446, 135, 452, 266, 494, 492, 484, 838, 745, 839
616, 158, 526, 325, 326, 557, 840, 727, 728, 842, 360
617, 263, 266, 446, 119, 290, 838, 836, 721, 722, 479
618, 116, 447, 265, 445, 474, 843, 743, 470, 475, 844
619, 445, 447, 265, 138, 475, 843, 844, 500, 497, 723
620, 323, 178, 523, 525, 726, 576, 845, 846, 577, 553
621, 116, 265, 447, 264, 743, 843, 474, 742, 299, 847
622, 138, 447, 265, 264, 497, 843, 723, 724, 847, 299
623, 325, 526, 524, 176, 840, 559, 841, 748, 572, 573
624, 178, 323, 324, 525, 726, 354, 725, 577, 846, 834
625, 118, 448, 263, 262, 476, 835, 718, 720, 837, 293
626, 135, 446, 263, 266, 494, 836, 744, 745, 838, 290
627, 118, 263, 448, 446, 718, 835, 476, 480, 836, 481
628, 447, 117, 264, 262, 473, 732, 847, 848, 731, 296
629, 447, 137, 448, 262, 498, 495, 478, 848, 730, 837
630, 448, 137, 136, 262, 495, 146, 496, 837, 730, 678
631, 447, 448, 117, 262, 478, 477, 473, 848, 837, 731
632, 326, 526, 325, 176, 842, 840, 360, 749, 572, 748
633, 264, 137, 447, 262, 729, 498, 847, 296, 730, 848
634, 325, 177, 524, 523, 714, 574, 841, 849, 575, 556
635, 154, 155, 529, 327, 164, 544, 543, 765, 675, 833
636, 523, 156, 323, 525, 551, 746, 845, 553, 549, 846
637, 325, 523, 524, 157, 849, 556, 841, 735, 552, 554
638, 156, 324, 323, 525, 747, 354, 746, 549, 834, 846
639, 325, 323, 523, 157, 357, 845, 849, 735, 734, 552
640, 177, 523, 325, 323, 575, 849, 714, 715, 845, 357
641, 159, 530, 526, 326, 560, 562, 558, 717, 850, 842
642, 265, 139, 267, 451, 710, 711, 302, 851, 501, 852
643, 445, 139, 265, 451, 499, 710, 844, 472, 501, 851
644, 328, 530, 159, 326, 853, 560, 716, 363, 850, 717
645, 326, 530, 526, 175, 850, 562, 842, 740, 570, 571
646, 115, 445, 265, 451, 471, 844, 737, 465, 472, 851
647, 328, 175, 530, 326, 739, 570, 853, 363, 740, 850
648, 265, 267, 115, 451, 302, 738, 737, 851, 852, 465
649, 451, 140, 139, 267, 469, 149, 501, 852, 753, 711
650, 529, 179, 180, 327, 579, 189, 547, 833, 713, 755
651, 445, 116, 115, 265, 470, 125, 471, 844, 743, 737
652, 526, 175, 176, 326, 571, 185, 572, 842, 740, 749
653, 159, 160, 530, 328, 169, 561, 560, 716, 756, 853
654, 119, 452, 120, 266, 483, 482, 129, 722, 839, 759
655, 523, 177, 178, 323, 575, 187, 576, 845, 715, 726
656, 447, 138, 137, 264, 497, 147, 498, 847, 724, 729
657, 117, 448, 118, 262, 477, 476, 127, 731, 837, 720
658, 530, 174, 175, 328, 567, 184, 570, 853, 760, 739
659, 452, 135, 134, 266, 492, 144, 489, 839, 745, 763
660, 524, 176, 177, 325, 573, 186, 574, 841, 748, 714
661, 447, 117, 116, 264, 473, 126, 474, 847, 732, 742
662, 157, 158, 524, 325, 167, 555, 554, 735, 727, 841
663, 526, 158, 159, 326, 557, 168, 558, 842, 728, 717
664, 525, 178, 179, 324, 577, 188, 578, 834, 725, 712
665, 446, 119, 118, 263, 479, 128, 480, 836, 721, 718
666, 114, 451, 115, 267, 466, 465, 124, 767, 852, 738
667, 445, 139, 138, 265, 499, 148, 500, 844, 710, 723
668, 156, 157, 523, 323, 166, 552, 551, 746, 734, 845
669, 207, 161, 38, 57, 792, 854, 215, 216, 611, 260
670, 38, 161, 208, 57, 854, 610, 255, 260, 611, 261
671, 35, 210, 158, 54, 246, 647, 855, 247, 249, 648
672, 159, 36, 211, 55, 856, 251, 703, 696, 252, 254
673, 34, 53, 209, 157, 242, 243, 241, 857, 700, 803
674, 390, 94, 117, 72, 424, 858, 807, 422, 423, 733
675, 391, 95, 178, 73, 430, 657, 656, 427, 428, 859
676, 212, 34, 157, 53, 235, 857, 699, 244, 242, 700
677, 117, 94, 393, 72, 858, 425, 808, 733, 423, 416
678, 35, 158, 209, 54, 855, 805, 240, 247, 648, 248
679, 179, 392, 96, 74, 691, 435, 690, 860, 432, 433
680, 390, 73, 178, 95, 421, 859, 692, 429, 428, 657
681, 116, 385, 71, 93, 798, 411, 741, 861, 419, 418
682, 50, 134, 205, 31, 862, 627, 228, 227, 628, 226
683, 135, 204, 51, 32, 864, 233, 863, 679, 231, 232
684, 69, 386, 114, 91, 407, 801, 642, 408, 409, 865
685, 391, 74, 179, 96, 426, 860, 697, 434, 433, 690
686, 49, 153, 30, 203, 688, 866, 223, 220, 709, 219
687, 68, 173, 90, 387, 867, 683, 404, 403, 684, 405
688, 175, 70, 385, 92, 868, 412, 802, 682, 413, 414
689, 206, 153, 30, 49, 689, 866, 222, 224, 688, 223
690, 210, 36, 159, 55, 245, 856, 695, 253, 252, 696
691, 173, 68, 90, 384, 867, 404, 683, 707, 396, 397
692, 52, 204, 156, 33, 238, 630, 631, 237, 230, 869
693, 134, 50, 206, 31, 862, 229, 687, 628, 227, 221
694, 386, 70, 175, 92, 406, 868, 681, 415, 413, 682
695, 205, 135, 51, 32, 680, 863, 234, 225, 679, 232
696, 71, 393, 116, 93, 417, 809, 741, 418, 420, 861
697, 69, 91, 114, 387, 408, 865, 642, 402, 410, 641
698, 207, 38, 161, 141, 215, 854, 792, 789, 813, 503
699, 98, 181, 388, 76, 616, 617, 401, 441, 870, 400
700, 98, 389, 181, 76, 442, 793, 616, 441, 436, 870
701, 389, 97, 120, 75, 439, 871, 619, 437, 438, 620
702, 208, 160, 37, 56, 622, 872, 256, 258, 621, 257
703, 212, 52, 156, 33, 239, 631, 665, 236, 237, 869
704, 208, 38, 141, 161, 255, 813, 794, 610, 854, 503
705, 121, 181, 389, 76, 583, 793, 613, 614, 870, 436
706, 392, 120, 97, 75, 672, 871, 440, 431, 620, 438
707, 160, 211, 37, 56, 670, 250, 872, 621, 259, 257
708, 392, 74, 179, 119, 432, 860, 691, 702, 701, 595
709, 391, 73, 178, 118, 427, 859, 656, 810, 719, 593
710, 138, 158, 35, 210, 515, 855, 650, 651, 647, 246
711, 34, 157, 209, 137, 857, 803, 241, 654, 513, 806
712, 390, 117, 94, 177, 807, 858, 424, 644, 591, 645
713, 35, 138, 209, 158, 650, 804, 240, 855, 515, 805
714, 212, 157, 34, 137, 699, 857, 235, 653, 513, 654
715, 393, 94, 117, 177, 425, 858, 808, 698, 645, 591
716, 30, 203, 153, 133, 219, 709, 866, 633, 795, 505
717, 114, 91, 386, 174, 865, 409, 801, 585, 625, 624
718, 205, 50, 154, 134, 228, 639, 800, 627, 862, 507
719, 116, 176, 385, 93, 589, 797, 798, 861, 668, 419
720, 210, 159, 36, 139, 695, 856, 245, 694, 517, 693
721, 113, 173, 68, 387, 581, 867, 686, 685, 684, 403
722, 68, 173, 113, 384, 867, 581, 686, 396, 707, 705
723, 206, 30, 153, 133, 222, 866, 689, 634, 633, 505
724, 385, 115, 70, 175, 799, 736, 412, 802, 587, 868
725, 91, 174, 114, 387, 625, 585, 865, 410, 636, 641
726, 206, 154, 50, 134, 638, 639, 229, 687, 507, 862
727, 176, 116, 393, 93, 589, 809, 667, 668, 861, 420
728, 180, 97, 392, 120, 663, 440, 662, 597, 871, 672
729, 140, 211, 37, 160, 659, 250, 660, 519, 670, 872
730, 10, 14, 15, 203, 599, 152, 602, 218, 796, 750
731, 9, 14, 10, 203, 600, 599, 29, 217, 796, 218
732, 3, 5, 4, 384, 199, 198, 24, 394, 751, 395
733, 388, 12, 13, 16, 398, 605, 791, 618, 607, 192
734, 6, 2, 7, 207, 194, 196, 26, 788, 213, 790
735, 2, 6, 1, 207, 194, 193, 17, 213, 788, 214
736, 388, 13, 12, 11, 791, 605, 398, 399, 604, 112
737, 522, 16, 15, 109, 535, 172, 536, 787, 608, 603
738, 521, 7, 8, 21, 531, 27, 532, 783, 197, 202
739, 443, 5, 6, 18, 453, 25, 454, 780, 200, 195
740, 444, 14, 13, 87, 457, 132, 458, 785, 601, 606
741, 135, 263, 33, 32, 744, 289, 873, 679, 288, 42
742, 33, 263, 135, 136, 289, 744, 873, 676, 677, 145
743, 33, 204, 135, 32, 230, 864, 873, 42, 231, 679
744, 154, 327, 51, 155, 765, 346, 874, 164, 675, 673
745, 51, 327, 154, 50, 346, 765, 874, 60, 347, 639
746, 154, 205, 51, 50, 800, 234, 874, 639, 228, 60
747, 141, 208, 37, 38, 794, 256, 875, 813, 255, 47
748, 37, 269, 141, 38, 303, 814, 875, 47, 304, 813
749, 141, 269, 37, 140, 814, 303, 875, 150, 752, 660
750, 181, 329, 97, 98, 815, 383, 876, 616, 382, 107
751, 97, 329, 181, 180, 383, 815, 876, 663, 754, 190
752, 97, 389, 181, 98, 439, 793, 876, 107, 442, 616
753, 114, 267, 70, 69, 767, 310, 877, 642, 309, 79
754, 70, 267, 114, 115, 310, 767, 877, 736, 738, 124
755, 70, 386, 114, 69, 406, 801, 877, 79, 407, 642
756, 135, 156, 51, 204, 509, 629, 863, 864, 630, 233
757, 51, 156, 135, 155, 629, 509, 863, 673, 165, 511
758, 175, 326, 93, 176, 740, 372, 878, 185, 749, 668
759, 93, 326, 175, 92, 372, 740, 878, 102, 373, 682
760, 93, 385, 175, 176, 419, 802, 878, 668, 797, 185
761, 175, 385, 93, 92, 802, 419, 878, 682, 414, 102
762, 9, 203, 133, 14, 217, 795, 879, 600, 796, 142
763, 133, 203, 9, 30, 795, 217, 879, 633, 219, 39
764, 133, 271, 9, 14, 773, 277, 879, 142, 825, 600
765, 9, 271, 133, 30, 277, 773, 879, 39, 278, 633
766, 117, 262, 73, 72, 731, 316, 880, 733, 315, 82
767, 73, 262, 117, 118, 316, 731, 880, 719, 720, 127
768, 73, 390, 117, 72, 421, 807, 880, 82, 422, 733
769, 157, 325, 54, 158, 735, 355, 881, 167, 727, 648
770, 54, 325, 157, 53, 355, 735, 881, 63, 356, 700
771, 54, 209, 157, 158, 248, 803, 881, 648, 805, 167
772, 157, 209, 54, 53, 803, 248, 881, 700, 243, 63
773, 137, 264, 35, 34, 729, 295, 882, 654, 294, 44
774, 35, 264, 137, 138, 295, 729, 882, 650, 724, 147
775, 35, 209, 137, 34, 240, 806, 882, 44, 241, 654
776, 137, 209, 35, 138, 806, 240, 882, 147, 804, 650
777, 74, 391, 118, 73, 426, 810, 883, 83, 427, 719
778, 74, 263, 118, 119, 318, 718, 883, 701, 721, 128
779, 118, 263, 74, 73, 718, 318, 883, 719, 317, 83
780, 116, 264, 72, 71, 742, 314, 884, 741, 313, 81
781, 72, 264, 116, 117, 314, 742, 884, 733, 732, 126
782, 72, 393, 116, 71, 416, 809, 884, 81, 417, 741
783, 116, 393, 72, 117, 809, 416, 884, 126, 808, 733
784, 156, 137, 33, 136, 512, 652, 869, 510, 146, 676
785, 33, 137, 156, 212, 652, 512, 869, 236, 653, 665
786, 159, 36, 140, 211, 856, 658, 518, 703, 251, 659
787, 140, 36, 159, 139, 658, 856, 518, 149, 693, 517
788, 5, 4, 173, 8, 198, 706, 580, 28, 201, 182
789, 173, 4, 5, 384, 706, 198, 580, 707, 395, 751
790, 7, 521, 57, 2, 531, 820, 885, 196, 782, 67
791, 57, 521, 7, 161, 820, 531, 885, 611, 533, 171
792, 57, 207, 7, 2, 216, 790, 885, 67, 213, 196
793, 7, 207, 57, 161, 790, 216, 885, 171, 792, 611
794, 13, 388, 76, 11, 791, 400, 886, 604, 399, 86
795, 76, 444, 13, 11, 822, 458, 886, 86, 784, 604
796, 13, 444, 76, 121, 458, 822, 886, 131, 459, 614
797, 38, 207, 6, 141, 215, 788, 887, 813, 789, 151
798, 6, 207, 38, 1, 788, 215, 887, 193, 214, 48
799, 6, 443, 38, 141, 454, 821, 887, 151, 456, 813
800, 38, 443, 6, 1, 821, 454, 887, 48, 781, 193
801, 330, 173, 161, 528, 819, 568, 812, 828, 569, 564
802, 173, 330, 161, 331, 819, 812, 568, 770, 367, 769
803, 268, 121, 133, 450, 811, 490, 817, 829, 485, 491
804, 133, 121, 268, 271, 490, 811, 817, 773, 771, 284
805, 269, 141, 113, 449, 814, 463, 818, 830, 464, 462
806, 113, 141, 269, 270, 463, 814, 818, 776, 774, 306
807, 329, 153, 181, 527, 816, 541, 815, 831, 539, 542
808, 181, 153, 329, 332, 541, 816, 815, 779, 777, 345
809, 76, 181, 13, 121, 870, 582, 886, 614, 583, 131
810, 13, 181, 76, 388, 582, 870, 886, 791, 617, 400
811, 51, 154, 135, 205, 874, 508, 863, 234, 800, 680
812, 135, 154, 51, 155, 508, 874, 863, 511, 164, 673
813, 33, 135, 156, 136, 873, 509, 869, 676, 145, 510
814, 156, 135, 33, 204, 509, 873, 869, 630, 864, 230
815, 97, 181, 120, 180, 876, 598, 871, 663, 190, 597
816, 181, 97, 120, 389, 876, 871, 598, 793, 439, 619
817, 37, 160, 141, 140, 872, 520, 875, 660, 519, 150
818, 141, 160, 37, 208, 520, 872, 875, 794, 622, 256
819, 70, 114, 175, 115, 877, 586, 868, 736, 124, 587
820, 175, 114, 70, 386, 586, 877, 868, 681, 801, 406
821, 73, 117, 178, 118, 880, 592, 859, 719, 127, 593
822, 178, 117, 73, 390, 592, 880, 859, 692, 807, 421
823, 74, 118, 179, 119, 883, 594, 860, 701, 128, 595
824, 179, 118, 74, 391, 594, 883, 860, 697, 810, 426
825, 267, 114, 140, 269, 767, 467, 753, 305, 766, 752
826, 140, 114, 267, 451, 467, 767, 753, 469, 466, 852
827, 327, 154, 180, 529, 765, 545, 755, 833, 543, 547
828, 180, 154, 327, 329, 545, 765, 755, 754, 764, 348
829, 266, 134, 120, 268, 763, 487, 759, 287, 762, 758
830, 120, 134, 266, 452, 487, 763, 759, 482, 489, 839
831, 328, 160, 174, 330, 756, 565, 760, 366, 757, 761
832, 160, 328, 174, 530, 756, 760, 565, 561, 853, 567
833, 115, 265, 71, 70, 737, 312, 888, 736, 311, 80
834, 71, 265, 115, 116, 312, 737, 888, 741, 743, 125
835, 71, 385, 115, 70, 411, 799, 888, 80, 412, 736
836, 115, 385, 71, 116, 799, 411, 888, 125, 798, 741

** Define element set Eall
*ELSET, ELSET=Eall
Evolumes



***********************************************************
** Element sets for materials and FEM element type (solid, shell, beam, fluid)
*ELSET,ELSET=MaterialSolidSolid
Evolumes

***********************************************************
** constraints fixed node sets
** ConstraintFixed
*NSET,NSET=ConstraintFixed
9,
10,
11,
12,
13,
14,
15,
16,
29,
87,
88,
89,
109,
110,
111,
112,
132,
152,
172,
192,
599,
600,
601,
602,
603,
604,
605,
606,
607,
608,

** Physical constants for SI(mm) unit system with Kelvins
*PHYSICAL CONSTANTS, ABSOLUTE ZERO=0, STEFAN BOLTZMANN=5.670374419e-11

***********************************************************
** Materials
** see information about units at file end
** FreeCAD material name: Custom
** MaterialSolid
*MATERIAL, NAME=MaterialSolid
*ELASTIC
45000,0.35
*EXPANSION, ZERO=0
2.36E-05

***********************************************************
** Sections
*SOLID SECTION, ELSET=MaterialSolidSolid, MATERIAL=MaterialSolid

***********************************************************
** At least one step is needed to run an CalculiX analysis of FreeCAD
*STEP, INC=2000
*STATIC
1.0,1.0,1e-05,1.0

***********************************************************
** Fixed Constraints
** ConstraintFixed
*BOUNDARY
ConstraintFixed,1
ConstraintFixed,2
ConstraintFixed,3


***********************************************************
** constraints force node loads
** ConstraintForce
*CLOAD
** node loads on shape: Pocket:Face1
1,1,0
2,1,0
3,1,0
4,1,0
5,1,0
6,1,0
7,1,0
8,1,0
17,1,1.893939393939
18,1,0
19,1,1.704545454545
20,1,1.704545454545
21,1,0
22,1,1.704545454545
23,1,1.704545454545
24,1,1.893939393939
25,1,2.272727272727
26,1,0.7575757575758
27,1,2.272727272727
28,1,0.7575757575758
193,1,3.598484848485
194,1,2.651515151515
195,1,3.977272727273
196,1,2.462121212121
197,1,3.977272727273
198,1,2.651515151515
199,1,3.598484848485
200,1,3.977272727273
201,1,2.462121212121
202,1,3.977272727273



***********************************************************
** Outputs --> frd file
*NODE FILE
U
*EL FILE
S, E
** outputs --> dat file
** reaction forces for Constraint fixed
*NODE PRINT, NSET=ConstraintFixed, TOTALS=ONLY
RF

*OUTPUT, FREQUENCY=1
***********************************************************
*END STEP

***********************************************************
** CalculiX Input file
**   written by    --> FreeCAD 1.1.3
**   written on    --> Tue Aug 18 19:43:33 2026
**   file name     --> link-magnesium-v4.FCStd
**   analysis name --> Analysis
**
**
***********************************************************
**  About units:
**  See ccx manual, ccx does not know about any unit.
**  Golden rule: The user must make sure that the numbers they provide have consistent units.
**  The user is the FreeCAD calculix writer module ;-)
**
**  The unit system which is used at Guido Dhondt's company: mm, N, s, K
**  Since Length and Mass are connected by Force, if Length is mm the Mass is in t to get N
**  The following units are used to write to inp file:
**
**  Length: mm (this includes the mesh geometry)
**  Mass: t
**  TimeSpan: s
**  Temperature: K
**
**  This leads to:
**  Force: N
**  Pressure: N/mm^2 == MPa (Young's Modulus has unit Pressure)
**  Density: t/mm^3
**  Gravity: mm/s^2
**  Thermal conductivity: t*mm/K/s^3 == as W/m/K == kW/mm/K
**  Specific Heat: mm^2/s^2/K = J/kg/K == kJ/t/K
**
